c 43_4_checker_6cl.cnf
c
c field = 43
c formula set type = 4_checker_6cl
c
p cnf 6 12
76 
78 
80 
82 
-74 
-86 
77 
79 
81 
83 
-75 
-87 
78 
80 
82 
86 
-76 
-88 
79 
81 
83 
87 
-77 
-89 
54 
114 
144 
174 
-24 
-204 
55 
115 
145 
175 
-25 
-205 
114 
144 
174 
204 
-54 
-234 
115 
145 
175 
205 
-55 
-235 
56 
112 
140 
168 
-28 
-196 
57 
113 
141 
169 
-29 
-197 
112 
140 
168 
196 
-56 
-224 
113 
141 
169 
197 
-57 
-225 
